% File represents an instance of a Composite Structure problem to be solved by a CP framework
% Created on 2025-03-25 14:06:11.795
T = 26;
n = 16;
m = 24;
edges = [(2, 1),
(6, 5),
(10, 9),
(13, 14),
(2, 3),
(6, 7),
(10, 11),
(14, 15),
(4, 3),
(8, 7),
(12, 11),
(16, 15),
(1, 5),
(5, 9),
(13, 9),
(2, 6),
(6, 10),
(10, 14),
(3, 7),
(7, 11),
(15, 11),
(4, 8),
(8, 12),
(16, 12)];
counts = [|4, 6, 4, 8,
|4, 6, 4, 10,
|4, 6, 2, 4,
|4, 6, 4, 12,
|4, 4, 2, 6,
|4, 4, 4, 8,
|4, 2, 2, 2,
|4, 2, 4, 8,
|2, 2, 2, 4,
|4, 4, 4, 6,
|2, 2, 2, 2,
|2, 2, 4, 6,
|2, 2, 4, 8,
|2, 2, 4, 6,
|2, 2, 2, 4,
|2, 2, 10, 6|];
